60
1 0 1
2 0 1
2 1 4
3 0 3
3 1 5
3 2 4
4 0 3
4 1 5
4 2 1
4 3 2
5 0 1
5 1 2
5 2 3
5 3 3
5 4 3
6 0 3
6 1 2
6 2 3
6 3 5
6 4 5
6 5 1
7 0 1
7 1 2
7 2 1
7 3 1
7 4 4
7 5 3
7 6 2
8 0 1
8 1 4
8 2 4
8 3 2
8 4 1
8 5 5
8 6 4
8 7 4
9 0 2
9 1 4
9 2 1
9 3 5
9 4 2
9 5 1
9 6 5
9 7 3
9 8 1
10 0 3
10 1 3
10 2 1
10 3 2
10 4 5
10 5 2
10 6 5
10 7 2
10 8 5
10 9 5
11 0 2
11 1 3
11 2 5
11 3 4
11 4 2
11 5 2
11 6 2
11 7 4
11 8 5
11 9 1
11 10 2
12 0 4
12 1 1
12 2 5
12 3 5
12 4 4
12 5 5
12 6 1
12 7 2
12 8 5
12 9 3
12 10 3
12 11 2
13 0 4
13 1 4
13 2 3
13 3 3
13 4 5
13 5 2
13 6 3
13 7 5
13 8 4
13 9 4
13 10 2
13 11 3
13 12 1
14 0 1
14 1 5
14 2 3
14 3 2
14 4 2
14 5 2
14 6 2
14 7 3
14 8 2
14 9 5
14 10 3
14 11 1
14 12 2
14 13 3
15 0 4
15 1 5
15 2 2
15 3 2
15 4 3
15 5 3
15 6 3
15 7 2
15 8 3
15 9 3
15 10 2
15 11 3
15 12 2
15 13 2
15 14 1
16 0 2
16 1 3
16 2 4
16 3 4
16 4 1
16 5 1
16 6 4
16 7 4
16 8 2
16 9 2
16 10 5
16 11 4
16 12 2
16 13 5
16 14 1
16 15 4
17 0 4
17 1 2
17 2 5
17 3 5
17 4 5
17 5 1
17 6 1
17 7 5
17 8 2
17 9 3
17 10 2
17 11 5
17 12 5
17 13 2
17 14 1
17 15 4
17 16 1
18 0 2
18 1 3
18 2 3
18 3 1
18 4 3
18 5 2
18 6 1
18 7 3
18 8 2
18 9 5
18 10 1
18 11 1
18 12 4
18 13 3
18 14 5
18 15 1
18 16 2
18 17 2
19 0 3
19 1 3
19 2 5
19 3 2
19 4 4
19 5 1
19 6 4
19 7 5
19 8 5
19 9 1
19 10 1
19 11 2
19 12 4
19 13 4
19 14 5
19 15 5
19 16 2
19 17 1
19 18 2
20 0 2
20 1 3
20 2 1
20 3 1
20 4 5
20 5 4
20 6 3
20 7 5
20 8 3
20 9 2
20 10 5
20 11 4
20 12 2
20 13 1
20 14 3
20 15 1
20 16 5
20 17 4
20 18 5
20 19 5
21 0 5
21 1 3
21 2 2
21 3 3
21 4 4
21 5 3
21 6 1
21 7 3
21 8 4
21 9 4
21 10 5
21 11 3
21 12 3
21 13 5
21 14 4
21 15 2
21 16 2
21 17 4
21 18 2
21 19 3
21 20 5
22 0 1
22 1 4
22 2 3
22 3 1
22 4 1
22 5 2
22 6 5
22 7 1
22 8 3
22 9 4
22 10 2
22 11 2
22 12 2
22 13 5
22 14 1
22 15 5
22 16 3
22 17 3
22 18 5
22 19 5
22 20 5
22 21 2
23 0 5
23 1 2
23 2 3
23 3 5
23 4 5
23 5 4
23 6 2
23 7 1
23 8 2
23 9 3
23 10 1
23 11 3
23 12 4
23 13 1
23 14 5
23 15 4
23 16 1
23 17 5
23 18 1
23 19 5
23 20 5
23 21 1
23 22 5
24 0 5
24 1 2
24 2 4
24 3 5
24 4 2
24 5 3
24 6 1
24 7 4
24 8 2
24 9 4
24 10 5
24 11 1
24 12 1
24 13 2
24 14 2
24 15 4
24 16 2
24 17 2
24 18 3
24 19 3
24 20 2
24 21 1
24 22 5
24 23 4
25 0 5
25 1 1
25 2 3
25 3 1
25 4 1
25 5 4
25 6 5
25 7 3
25 8 4
25 9 5
25 10 4
25 11 5
25 12 4
25 13 3
25 14 4
25 15 4
25 16 1
25 17 3
25 18 3
25 19 3
25 20 1
25 21 5
25 22 2
25 23 4
25 24 4
26 0 2
26 1 1
26 2 5
26 3 3
26 4 5
26 5 1
26 6 2
26 7 2
26 8 1
26 9 4
26 10 4
26 11 1
26 12 3
26 13 1
26 14 2
26 15 2
26 16 3
26 17 4
26 18 2
26 19 4
26 20 2
26 21 5
26 22 3
26 23 1
26 24 2
26 25 1
27 0 1
27 1 5
27 2 1
27 3 4
27 4 5
27 5 3
27 6 3
27 7 4
27 8 4
27 9 5
27 10 5
27 11 4
27 12 5
27 13 2
27 14 3
27 15 1
27 16 1
27 17 3
27 18 3
27 19 2
27 20 3
27 21 1
27 22 3
27 23 2
27 24 4
27 25 3
27 26 2
28 0 5
28 1 1
28 2 2
28 3 3
28 4 5
28 5 1
28 6 4
28 7 4
28 8 1
28 9 1
28 10 3
28 11 5
28 12 4
28 13 5
28 14 2
28 15 5
28 16 4
28 17 3
28 18 1
28 19 1
28 20 3
28 21 4
28 22 2
28 23 3
28 24 2
28 25 1
28 26 2
28 27 4
29 0 1
29 1 5
29 2 2
29 3 3
29 4 3
29 5 1
29 6 2
29 7 1
29 8 4
29 9 5
29 10 5
29 11 4
29 12 3
29 13 3
29 14 5
29 15 2
29 16 4
29 17 1
29 18 5
29 19 3
29 20 4
29 21 4
29 22 5
29 23 5
29 24 1
29 25 3
29 26 1
29 27 3
29 28 5
30 0 5
30 1 4
30 2 4
30 3 5
30 4 3
30 5 1
30 6 3
30 7 4
30 8 1
30 9 1
30 10 3
30 11 5
30 12 3
30 13 5
30 14 2
30 15 2
30 16 5
30 17 4
30 18 2
30 19 1
30 20 2
30 21 3
30 22 1
30 23 2
30 24 2
30 25 2
30 26 2
30 27 4
30 28 1
30 29 1
31 0 5
31 1 1
31 2 4
31 3 2
31 4 1
31 5 1
31 6 1
31 7 2
31 8 5
31 9 5
31 10 2
31 11 4
31 12 1
31 13 1
31 14 2
31 15 5
31 16 3
31 17 5
31 18 4
31 19 2
31 20 3
31 21 1
31 22 2
31 23 5
31 24 5
31 25 4
31 26 3
31 27 2
31 28 2
31 29 4
31 30 5
32 0 1
32 1 5
32 2 4
32 3 5
32 4 3
32 5 1
32 6 3
32 7 5
32 8 1
32 9 3
32 10 5
32 11 2
32 12 1
32 13 2
32 14 5
32 15 3
32 16 1
32 17 3
32 18 4
32 19 5
32 20 5
32 21 2
32 22 4
32 23 3
32 24 1
32 25 5
32 26 1
32 27 3
32 28 5
32 29 3
32 30 5
32 31 1
33 0 2
33 1 5
33 2 3
33 3 1
33 4 5
33 5 5
33 6 5
33 7 1
33 8 2
33 9 5
33 10 4
33 11 3
33 12 4
33 13 3
33 14 2
33 15 1
33 16 3
33 17 1
33 18 4
33 19 2
33 20 4
33 21 2
33 22 3
33 23 5
33 24 4
33 25 2
33 26 3
33 27 5
33 28 3
33 29 4
33 30 2
33 31 2
33 32 3
34 0 4
34 1 4
34 2 4
34 3 1
34 4 4
34 5 3
34 6 5
34 7 1
34 8 2
34 9 4
34 10 1
34 11 2
34 12 3
34 13 2
34 14 4
34 15 1
34 16 5
34 17 5
34 18 4
34 19 4
34 20 3
34 21 3
34 22 2
34 23 5
34 24 3
34 25 5
34 26 1
34 27 4
34 28 5
34 29 4
34 30 4
34 31 5
34 32 1
34 33 4
35 0 3
35 1 4
35 2 1
35 3 4
35 4 3
35 5 3
35 6 2
35 7 1
35 8 3
35 9 4
35 10 4
35 11 3
35 12 1
35 13 3
35 14 2
35 15 1
35 16 4
35 17 4
35 18 3
35 19 4
35 20 4
35 21 1
35 22 5
35 23 3
35 24 3
35 25 1
35 26 4
35 27 5
35 28 5
35 29 4
35 30 1
35 31 3
35 32 1
35 33 4
35 34 2
36 0 3
36 1 5
36 2 4
36 3 3
36 4 4
36 5 3
36 6 3
36 7 1
36 8 5
36 9 3
36 10 5
36 11 5
36 12 5
36 13 2
36 14 1
36 15 5
36 16 3
36 17 1
36 18 3
36 19 4
36 20 3
36 21 4
36 22 2
36 23 3
36 24 5
36 25 4
36 26 2
36 27 4
36 28 2
36 29 5
36 30 1
36 31 3
36 32 1
36 33 3
36 34 5
36 35 2
37 0 5
37 1 2
37 2 3
37 3 2
37 4 5
37 5 2
37 6 1
37 7 5
37 8 5
37 9 3
37 10 4
37 11 1
37 12 3
37 13 4
37 14 4
37 15 3
37 16 4
37 17 4
37 18 3
37 19 4
37 20 4
37 21 3
37 22 3
37 23 1
37 24 3
37 25 5
37 26 3
37 27 2
37 28 2
37 29 2
37 30 4
37 31 4
37 32 4
37 33 5
37 34 3
37 35 3
37 36 1
38 0 3
38 1 2
38 2 2
38 3 3
38 4 5
38 5 1
38 6 1
38 7 1
38 8 5
38 9 3
38 10 1
38 11 2
38 12 1
38 13 4
38 14 3
38 15 1
38 16 1
38 17 3
38 18 3
38 19 3
38 20 1
38 21 3
38 22 2
38 23 5
38 24 4
38 25 5
38 26 5
38 27 1
38 28 1
38 29 3
38 30 4
38 31 4
38 32 3
38 33 5
38 34 4
38 35 3
38 36 1
38 37 4
39 0 3
39 1 3
39 2 1
39 3 2
39 4 4
39 5 2
39 6 4
39 7 5
39 8 2
39 9 4
39 10 2
39 11 2
39 12 4
39 13 3
39 14 5
39 15 4
39 16 4
39 17 1
39 18 3
39 19 5
39 20 3
39 21 5
39 22 1
39 23 4
39 24 1
39 25 3
39 26 3
39 27 1
39 28 1
39 29 1
39 30 3
39 31 4
39 32 2
39 33 5
39 34 5
39 35 2
39 36 5
39 37 4
39 38 5
40 0 4
40 1 5
40 2 4
40 3 4
40 4 3
40 5 5
40 6 1
40 7 5
40 8 5
40 9 4
40 10 2
40 11 5
40 12 3
40 13 1
40 14 3
40 15 3
40 16 3
40 17 5
40 18 1
40 19 4
40 20 2
40 21 1
40 22 2
40 23 3
40 24 5
40 25 1
40 26 2
40 27 1
40 28 1
40 29 3
40 30 5
40 31 1
40 32 5
40 33 5
40 34 5
40 35 5
40 36 1
40 37 2
40 38 1
40 39 4
41 0 1
41 1 1
41 2 1
41 3 5
41 4 5
41 5 3
41 6 2
41 7 1
41 8 1
41 9 3
41 10 5
41 11 4
41 12 5
41 13 1
41 14 1
41 15 3
41 16 5
41 17 5
41 18 1
41 19 2
41 20 1
41 21 5
41 22 4
41 23 1
41 24 5
41 25 1
41 26 2
41 27 1
41 28 4
41 29 5
41 30 3
41 31 3
41 32 1
41 33 1
41 34 4
41 35 3
41 36 5
41 37 4
41 38 2
41 39 4
41 40 3
42 0 4
42 1 1
42 2 3
42 3 4
42 4 3
42 5 4
42 6 2
42 7 3
42 8 4
42 9 3
42 10 5
42 11 3
42 12 1
42 13 3
42 14 2
42 15 1
42 16 2
42 17 5
42 18 2
42 19 2
42 20 4
42 21 1
42 22 4
42 23 3
42 24 5
42 25 4
42 26 2
42 27 1
42 28 1
42 29 2
42 30 5
42 31 5
42 32 1
42 33 3
42 34 5
42 35 3
42 36 2
42 37 5
42 38 4
42 39 5
42 40 3
42 41 5
43 0 2
43 1 5
43 2 2
43 3 5
43 4 3
43 5 2
43 6 1
43 7 2
43 8 1
43 9 1
43 10 4
43 11 3
43 12 4
43 13 4
43 14 5
43 15 2
43 16 1
43 17 5
43 18 3
43 19 3
43 20 5
43 21 3
43 22 3
43 23 2
43 24 1
43 25 5
43 26 4
43 27 5
43 28 1
43 29 5
43 30 3
43 31 5
43 32 2
43 33 5
43 34 5
43 35 5
43 36 1
43 37 5
43 38 3
43 39 5
43 40 1
43 41 1
43 42 4
44 0 3
44 1 4
44 2 5
44 3 2
44 4 5
44 5 4
44 6 4
44 7 1
44 8 4
44 9 3
44 10 5
44 11 2
44 12 1
44 13 5
44 14 3
44 15 5
44 16 2
44 17 3
44 18 1
44 19 5
44 20 4
44 21 5
44 22 5
44 23 4
44 24 2
44 25 3
44 26 5
44 27 1
44 28 4
44 29 1
44 30 3
44 31 1
44 32 3
44 33 3
44 34 4
44 35 2
44 36 5
44 37 4
44 38 1
44 39 4
44 40 3
44 41 3
44 42 2
44 43 5
45 0 4
45 1 1
45 2 3
45 3 4
45 4 2
45 5 3
45 6 3
45 7 4
45 8 4
45 9 4
45 10 2
45 11 3
45 12 3
45 13 2
45 14 3
45 15 5
45 16 1
45 17 2
45 18 2
45 19 2
45 20 5
45 21 5
45 22 2
45 23 3
45 24 3
45 25 2
45 26 3
45 27 3
45 28 3
45 29 5
45 30 1
45 31 2
45 32 3
45 33 1
45 34 5
45 35 4
45 36 1
45 37 5
45 38 3
45 39 2
45 40 5
45 41 3
45 42 1
45 43 5
45 44 1
46 0 5
46 1 2
46 2 1
46 3 1
46 4 4
46 5 4
46 6 5
46 7 2
46 8 3
46 9 4
46 10 1
46 11 3
46 12 4
46 13 5
46 14 4
46 15 5
46 16 3
46 17 4
46 18 5
46 19 3
46 20 5
46 21 2
46 22 4
46 23 2
46 24 3
46 25 3
46 26 3
46 27 4
46 28 5
46 29 3
46 30 4
46 31 2
46 32 3
46 33 2
46 34 2
46 35 5
46 36 5
46 37 2
46 38 4
46 39 3
46 40 1
46 41 1
46 42 1
46 43 4
46 44 2
46 45 4
47 0 1
47 1 1
47 2 1
47 3 3
47 4 2
47 5 1
47 6 1
47 7 4
47 8 2
47 9 2
47 10 2
47 11 4
47 12 5
47 13 2
47 14 4
47 15 1
47 16 1
47 17 4
47 18 3
47 19 5
47 20 5
47 21 4
47 22 1
47 23 4
47 24 3
47 25 4
47 26 4
47 27 4
47 28 2
47 29 1
47 30 2
47 31 4
47 32 3
47 33 3
47 34 4
47 35 2
47 36 3
47 37 2
47 38 1
47 39 2
47 40 1
47 41 4
47 42 2
47 43 4
47 44 4
47 45 2
47 46 5
48 0 3
48 1 3
48 2 1
48 3 1
48 4 5
48 5 5
48 6 2
48 7 5
48 8 3
48 9 2
48 10 3
48 11 2
48 12 5
48 13 5
48 14 5
48 15 5
48 16 2
48 17 5
48 18 4
48 19 3
48 20 5
48 21 2
48 22 3
48 23 5
48 24 5
48 25 5
48 26 1
48 27 1
48 28 5
48 29 1
48 30 3
48 31 4
48 32 4
48 33 2
48 34 4
48 35 2
48 36 2
48 37 2
48 38 2
48 39 5
48 40 5
48 41 3
48 42 2
48 43 2
48 44 5
48 45 2
48 46 3
48 47 1
49 0 2
49 1 3
49 2 5
49 3 4
49 4 5
49 5 2
49 6 1
49 7 3
49 8 3
49 9 4
49 10 3
49 11 3
49 12 3
49 13 4
49 14 1
49 15 4
49 16 1
49 17 1
49 18 5
49 19 5
49 20 3
49 21 5
49 22 1
49 23 3
49 24 5
49 25 2
49 26 4
49 27 5
49 28 5
49 29 2
49 30 5
49 31 3
49 32 5
49 33 4
49 34 4
49 35 1
49 36 5
49 37 5
49 38 4
49 39 4
49 40 3
49 41 4
49 42 4
49 43 1
49 44 4
49 45 5
49 46 4
49 47 5
49 48 3
50 0 2
50 1 2
50 2 1
50 3 3
50 4 4
50 5 1
50 6 3
50 7 3
50 8 5
50 9 1
50 10 4
50 11 3
50 12 5
50 13 5
50 14 2
50 15 2
50 16 4
50 17 5
50 18 3
50 19 1
50 20 4
50 21 1
50 22 2
50 23 3
50 24 4
50 25 4
50 26 2
50 27 3
50 28 5
50 29 2
50 30 2
50 31 4
50 32 5
50 33 4
50 34 2
50 35 4
50 36 2
50 37 3
50 38 1
50 39 4
50 40 4
50 41 4
50 42 1
50 43 1
50 44 4
50 45 1
50 46 2
50 47 5
50 48 1
50 49 2
51 0 4
51 1 3
51 2 4
51 3 1
51 4 3
51 5 2
51 6 3
51 7 5
51 8 5
51 9 4
51 10 5
51 11 3
51 12 3
51 13 4
51 14 2
51 15 4
51 16 2
51 17 5
51 18 2
51 19 2
51 20 4
51 21 5
51 22 4
51 23 2
51 24 5
51 25 1
51 26 5
51 27 2
51 28 3
51 29 4
51 30 3
51 31 2
51 32 2
51 33 3
51 34 5
51 35 1
51 36 4
51 37 1
51 38 5
51 39 2
51 40 4
51 41 4
51 42 1
51 43 4
51 44 3
51 45 1
51 46 4
51 47 1
51 48 4
51 49 5
51 50 3
52 0 3
52 1 1
52 2 1
52 3 2
52 4 4
52 5 1
52 6 4
52 7 1
52 8 1
52 9 3
52 10 5
52 11 4
52 12 2
52 13 2
52 14 1
52 15 4
52 16 3
52 17 4
52 18 4
52 19 5
52 20 1
52 21 5
52 22 3
52 23 4
52 24 4
52 25 5
52 26 4
52 27 4
52 28 3
52 29 1
52 30 2
52 31 3
52 32 2
52 33 5
52 34 3
52 35 5
52 36 4
52 37 4
52 38 5
52 39 3
52 40 5
52 41 1
52 42 4
52 43 4
52 44 4
52 45 3
52 46 3
52 47 5
52 48 1
52 49 5
52 50 2
52 51 1
53 0 5
53 1 3
53 2 3
53 3 5
53 4 2
53 5 2
53 6 3
53 7 2
53 8 1
53 9 2
53 10 5
53 11 3
53 12 4
53 13 3
53 14 2
53 15 4
53 16 1
53 17 1
53 18 5
53 19 3
53 20 4
53 21 5
53 22 5
53 23 4
53 24 5
53 25 2
53 26 3
53 27 1
53 28 4
53 29 1
53 30 5
53 31 1
53 32 2
53 33 4
53 34 5
53 35 3
53 36 1
53 37 1
53 38 5
53 39 1
53 40 4
53 41 1
53 42 3
53 43 4
53 44 3
53 45 5
53 46 4
53 47 2
53 48 3
53 49 1
53 50 2
53 51 5
53 52 4
54 0 5
54 1 3
54 2 3
54 3 2
54 4 2
54 5 4
54 6 3
54 7 3
54 8 4
54 9 1
54 10 1
54 11 5
54 12 3
54 13 1
54 14 1
54 15 4
54 16 3
54 17 1
54 18 4
54 19 1
54 20 1
54 21 5
54 22 4
54 23 1
54 24 3
54 25 3
54 26 3
54 27 1
54 28 5
54 29 3
54 30 3
54 31 5
54 32 5
54 33 2
54 34 2
54 35 4
54 36 3
54 37 5
54 38 2
54 39 3
54 40 3
54 41 1
54 42 2
54 43 2
54 44 5
54 45 2
54 46 1
54 47 3
54 48 3
54 49 5
54 50 1
54 51 1
54 52 3
54 53 1
55 0 1
55 1 2
55 2 1
55 3 4
55 4 2
55 5 1
55 6 1
55 7 3
55 8 1
55 9 3
55 10 2
55 11 2
55 12 4
55 13 5
55 14 5
55 15 2
55 16 1
55 17 4
55 18 4
55 19 2
55 20 4
55 21 1
55 22 5
55 23 2
55 24 4
55 25 2
55 26 4
55 27 1
55 28 1
55 29 1
55 30 2
55 31 3
55 32 1
55 33 2
55 34 3
55 35 1
55 36 1
55 37 4
55 38 4
55 39 5
55 40 3
55 41 1
55 42 4
55 43 3
55 44 2
55 45 2
55 46 5
55 47 2
55 48 2
55 49 2
55 50 4
55 51 5
55 52 1
55 53 3
55 54 5
56 0 5
56 1 2
56 2 3
56 3 2
56 4 2
56 5 5
56 6 4
56 7 2
56 8 5
56 9 2
56 10 3
56 11 1
56 12 5
56 13 1
56 14 3
56 15 4
56 16 1
56 17 5
56 18 4
56 19 1
56 20 3
56 21 4
56 22 2
56 23 5
56 24 4
56 25 1
56 26 1
56 27 5
56 28 3
56 29 1
56 30 1
56 31 2
56 32 1
56 33 2
56 34 2
56 35 5
56 36 3
56 37 1
56 38 4
56 39 1
56 40 4
56 41 1
56 42 3
56 43 1
56 44 1
56 45 3
56 46 2
56 47 2
56 48 2
56 49 2
56 50 3
56 51 2
56 52 3
56 53 1
56 54 1
56 55 1
57 0 4
57 1 5
57 2 2
57 3 1
57 4 5
57 5 4
57 6 5
57 7 2
57 8 2
57 9 2
57 10 4
57 11 2
57 12 2
57 13 3
57 14 5
57 15 4
57 16 1
57 17 3
57 18 4
57 19 4
57 20 4
57 21 2
57 22 1
57 23 2
57 24 5
57 25 5
57 26 3
57 27 1
57 28 5
57 29 5
57 30 3
57 31 3
57 32 1
57 33 3
57 34 5
57 35 3
57 36 5
57 37 1
57 38 2
57 39 5
57 40 2
57 41 5
57 42 5
57 43 5
57 44 2
57 45 3
57 46 3
57 47 2
57 48 3
57 49 1
57 50 1
57 51 2
57 52 5
57 53 4
57 54 3
57 55 2
57 56 2
58 0 4
58 1 1
58 2 1
58 3 3
58 4 2
58 5 4
58 6 5
58 7 4
58 8 3
58 9 5
58 10 3
58 11 1
58 12 3
58 13 1
58 14 4
58 15 4
58 16 1
58 17 1
58 18 1
58 19 1
58 20 4
58 21 5
58 22 1
58 23 5
58 24 1
58 25 4
58 26 4
58 27 3
58 28 4
58 29 5
58 30 4
58 31 3
58 32 4
58 33 1
58 34 1
58 35 5
58 36 3
58 37 4
58 38 5
58 39 5
58 40 2
58 41 5
58 42 3
58 43 3
58 44 1
58 45 4
58 46 1
58 47 2
58 48 4
58 49 3
58 50 5
58 51 1
58 52 5
58 53 4
58 54 5
58 55 5
58 56 2
58 57 5
59 0 5
59 1 4
59 2 4
59 3 3
59 4 2
59 5 1
59 6 3
59 7 4
59 8 5
59 9 1
59 10 2
59 11 1
59 12 3
59 13 2
59 14 5
59 15 1
59 16 5
59 17 5
59 18 1
59 19 5
59 20 2
59 21 1
59 22 5
59 23 1
59 24 2
59 25 5
59 26 4
59 27 4
59 28 5
59 29 4
59 30 4
59 31 4
59 32 1
59 33 2
59 34 2
59 35 4
59 36 4
59 37 1
59 38 3
59 39 5
59 40 4
59 41 3
59 42 5
59 43 4
59 44 1
59 45 1
59 46 4
59 47 2
59 48 2
59 49 5
59 50 1
59 51 3
59 52 2
59 53 2
59 54 3
59 55 3
59 56 2
59 57 5
59 58 3
